# Objective value = 70
WA1n 0
WA1p 0
WA2n 1
WA2p 0
WB1n 0
WB1p 0
WB2n 1
WB2p 0
WC1n 0
WC1p 0
WC2n 0
WC2p 1
WD1n 1
WD1p 0
WD2n 1
WD2p 0
WE1n 1
WE1p 0
WE2n 1
WE2p 0
WF1n 0
WF1p 1
WF2n 0
WF2p 1
WG1n 0
WG1p 1
WG2n 0
WG2p 1
WH1n 0
WH1p 6
WH2n 0
WH2p 1
WI1n 8
WI1p 0
WI2n 0
WI2p 0
WJ1n 0
WJ1p 8
WJ2n 0
WJ2p 0
WK1n 0
WK1p 8
WK2n 0
WK2p 0
WT1n 0
WT1p 18
WT2n 0
WT2p 1
100 102
a 1
b 1
c 1
d 1
e 1
f 1
g 1
h 1
i 1
j 1
k 1
l 1
m 1
n 1
o 1
p 1
q 0
r 0
s 1
t 1
u 1
v 1
w 1
x 1
